NAME : Euclidean Random Tour : n = 100, sample = 24 
COMMENT : Coordinates are generated uniformly sampled from [0, 100000] x [0, 100000] 
DIMENSION : 100 
EDGE_WEIGHT_TYPE : EUC_2D 
TOUR_SECTION 
1
81
63
90
29
68
19
15
93
45
22
54
26
13
74
5
43
50
16
53
48
70
84
33
72
20
73
10
27
59
37
8
12
89
96
23
4
7
38
65
49
87
66
18
78
80
86
82
2
36
98
28
51
14
77
24
6
9
41
30
25
61
100
58
17
55
97
60
94
79
99
57
85
44
39
75
92
31
91
11
40
95
34
52
21
62
64
83
67
46
35
32
69
3
71
88
76
56
47
42
-1
